Intel MKL WARNING: Support of Intel(R) Streaming SIMD Extensions 4.2 (Intel(R) SSE4.2) enabled only processors has been deprecated. Intel oneAPI Math Kernel Library 2025.0 will require Intel(R) Advanced Vector Extensions (Intel(R) AVX) instructions.
Intel MKL WARNING: Support of Intel(R) Streaming SIMD Extensions 4.2 (Intel(R) SSE4.2) enabled only processors has been deprecated. Intel oneAPI Math Kernel Library 2025.0 will require Intel(R) Advanced Vector Extensions (Intel(R) AVX) instructions.
===================================
            PICOS 2.5.1            
===================================
Problem type: Second Order Cone Program.
Searching a solution strategy for Gurobi.
Solution strategy:
  1. ExtraOptions
  2. GurobiSolver
Skipping ExtraOptions.
Building a Gurobi problem instance.
Restricted license - for non-production use only - expires 2025-11-24
Starting solution search.
Set parameter FeasibilityTol to value 1e-08
Set parameter OptimalityTol to value 1e-08
Set parameter BarQCPConvTol to value 1e-10
Set parameter MIPGapAbs to value 1e-06
Set parameter QCPDual to value 1
-----------------------------------
         Gurobi Optimizer          
-----------------------------------
Gurobi Optimizer version 11.0.3 build v11.0.3rc0 (mac64[rosetta2] - Darwin 22.2.0 22C65)

CPU model: Apple M2
Thread count: 8 physical cores, 8 logical processors, using up to 8 threads

Optimize a model with 6 rows, 6 columns and 14 nonzeros
Model fingerprint: 0x027fb17b
Model has 1 quadratic constraint
Coefficient statistics:
  Matrix range     [1e+00, 4e+00]
  QMatrix range    [1e+00, 1e+00]
  Objective range  [1e+00, 3e+00]
  Bounds range     [0e+00, 0e+00]
  RHS range        [1e+01, 2e+01]
Presolve time: 0.02s
Presolved: 6 rows, 6 columns, 14 nonzeros
Presolved model has 1 second-order cone constraint
Ordering time: 0.00s

Barrier statistics:
 Free vars  : 1
 AA' NZ     : 1.400e+01
 Factor NZ  : 2.100e+01
 Factor Ops : 9.100e+01 (less than 1 second per iteration)
 Threads    : 1

                  Objective                Residual
Iter       Primal          Dual         Primal    Dual     Compl     Time
   0   2.99080803e+01 -2.31901084e+00  1.11e+01 2.03e+00  1.74e+01     0s
   1  -2.49550668e+01 -3.78761024e-02  3.49e+00 8.35e-01  4.45e+00     0s
   2  -1.23836583e+01 -2.18779451e+01  7.12e-01 2.64e-06  2.18e+00     0s
   3  -1.31963915e+01 -1.38359575e+01  1.38e-08 1.80e-07  9.14e-02     0s
   4  -1.34717907e+01 -1.34743976e+01  9.73e-13 1.51e-07  3.72e-04     0s
   5  -1.34721931e+01 -1.34722477e+01  2.13e-11 2.31e-08  7.81e-06     0s
   6  -1.34721936e+01 -1.34721936e+01  3.49e-10 4.44e-11  9.25e-09     0s
   7  -1.34721936e+01 -1.34721936e+01  4.05e-12 4.39e-11  2.59e-10     0s
   8  -1.34721936e+01 -1.34721936e+01  4.85e-14 7.76e-12  1.60e-11     0s

Barrier solved model in 8 iterations and 0.04 seconds (0.00 work units)
Optimal objective -1.34721936e+01

Solving KKT system to obtain QCP duals...

------------[ Gurobi ]-------------
Solver claims optimal solution for feasible problem.
Applying the solution.
Applied solution is primal feasible.
Search 5.1e-02s, solve 2.4e-01s, overhead 374%.
=============[ PICOS ]=============
Processing time: 0.2399 seconds
終了状態: optimal
目的関数値: -13.47
最適解: {<3×1 Real Variable: x>: <3x1 matrix, tc='d'>}
x[0] = 5.25
x[1] = -2.25
x[2] = -4.74
